(declare-const v0 Bool)
(declare-const v1 Bool)
(declare-const v2 Bool)
(declare-const v3 Bool)
(declare-const v4 Bool)
(assert (edge (or v1 (not v0)) true))
(assert (edge true (or v3 (not v1) (not v2))))
(assert (edge (not v0) true))
(assert (edge v0 (or (not v1) (not v2))))
(assert (edge (or (not v1) v3 (not v4)) (or v4 (not v0))))
(assert (not (edge (or (not v1) (not v0)) (or v1 v2 (not v4)))))